100 276232
33 78 7 65 71 99 89 64 48 88 55 29 72 83 25 70 2 20 12 30 77 81 43 47 69 3 52 36 6 28 92 53 98 97 38 26 82 90 49 68 24 31 75 37 27 5 23 42 18 41 19 59 58 61 39 93 79 54 56 40 21 44 73 67 13 86 96 51 16 87 35 94 84 4 45 91 76 80 95 1 32 66 14 34 46 11 17 8 60 100 50 10 85 63 74 62 22 9 57 15 
